14
shortest_path: 355
-1 129 34 25 87 117 68 142 147 53 98 149 85 36
129 -1 17 46 23 65 69 77 81 72 132 14 119 21
34 17 -1 102 60 132 133 124 144 44 123 57 100 33
25 46 102 -1 89 53 50 64 42 124 61 11 66 43
87 23 60 89 -1 93 37 105 15 139 51 30 28 56
117 65 132 53 93 -1 25 46 146 137 15 77 129 65
68 69 133 50 37 25 -1 102 149 75 107 124 65 78
142 77 124 64 105 46 102 -1 123 68 17 75 74 135
147 81 144 42 15 146 149 123 -1 29 109 13 64 85
53 72 44 124 139 137 75 68 29 -1 135 66 128 108
98 132 123 61 51 15 107 17 109 135 -1 38 147 11
149 14 57 11 30 77 124 75 13 66 38 -1 19 109
85 119 100 66 28 129 65 74 64 128 147 19 -1 15
36 21 33 43 56 65 78 135 85 108 11 109 15 -1